NAME : X_26_seed_123_id_9
TYPE : CVRP
DIMENSION : 219
EDGE_WEIGHT_TYPE : EUC_2D
CAPACITY : 3
NODE_COORD_SECTION
1	0	0
2	769	830
3	955	104
4	255	390
5	270	559
6	230	743
7	989	86
8	602	332
9	859	90
10	797	129
11	861	706
12	310	661
13	348	781
14	236	910
15	433	269
16	368	929
17	751	130
18	299	784
19	943	546
20	752	160
21	100	573
22	224	828
23	470	54
24	219	528
25	203	441
26	895	767
27	584	136
28	74	285
29	17	431
30	208	209
31	505	255
32	622	356
33	141	974
34	192	775
35	906	942
36	91	800
37	164	585
38	118	752
39	178	579
40	404	717
41	79	560
42	904	936
43	296	494
44	833	798
45	736	175
46	190	821
47	945	612
48	382	332
49	664	193
50	865	94
51	807	809
52	692	300
53	347	318
54	348	382
55	493	669
56	634	672
57	60	721
58	328	429
59	956	693
60	35	370
61	806	226
62	91	924
63	200	780
64	140	421
65	418	179
66	794	990
67	703	57
68	186	246
69	332	723
70	933	795
71	104	614
72	953	937
73	807	201
74	228	960
75	705	320
76	887	154
77	737	718
78	634	216
79	51	419
80	739	349
81	514	308
82	707	429
83	708	931
84	842	983
85	706	417
86	239	582
87	458	242
88	561	523
89	791	378
90	530	7
91	68	896
92	570	286
93	704	403
94	631	217
95	787	180
96	690	799
97	955	813
98	889	344
99	686	111
100	605	187
101	215	828
102	18	722
103	341	854
104	404	878
105	172	799
106	93	784
107	677	58
108	872	384
109	917	403
110	345	105
111	819	910
112	40	251
113	841	379
114	306	827
115	886	150
116	830	766
117	424	679
118	776	781
119	624	908
120	7	274
121	413	371
122	91	858
123	6	811
124	937	811
125	729	514
126	196	689
127	507	307
128	497	979
129	988	620
130	338	536
131	460	206
132	510	407
133	121	715
134	888	689
135	824	688
136	968	980
137	635	568
138	760	938
139	911	979
140	871	108
141	91	933
142	716	997
143	447	584
144	315	668
145	667	913
146	235	698
147	786	300
148	814	726
149	852	800
150	87	388
151	867	957
152	735	851
153	481	208
154	842	181
155	194	46
156	936	639
157	675	172
158	173	881
159	126	787
160	307	492
161	64	332
162	331	103
163	195	75
164	988	875
165	435	15
166	479	175
167	150	769
168	325	917
169	861	190
170	502	113
171	923	534
172	513	929
173	976	728
174	522	792
175	948	702
176	486	317
177	249	166
178	914	513
179	682	542
180	192	442
181	423	959
182	881	906
183	89	780
184	220	879
185	446	407
186	893	110
187	433	870
188	652	978
189	29	250
190	495	693
191	254	246
192	101	292
193	408	674
194	685	950
195	593	272
196	830	618
197	620	141
198	526	460
199	131	898
200	428	147
201	114	265
202	664	643
203	851	86
204	387	520
205	184	616
206	943	741
207	28	313
208	88	802
209	397	801
210	429	876
211	395	959
212	943	473
213	974	705
214	134	345
215	766	916
216	963	187
217	124	27
218	188	291
219	766	857
DEMAND_SECTION
1	0
2	1
3	1
4	1
5	1
6	1
7	1
8	1
9	1
10	1
11	1
12	1
13	1
14	1
15	1
16	1
17	1
18	1
19	1
20	1
21	1
22	1
23	1
24	1
25	1
26	1
27	1
28	1
29	1
30	1
31	1
32	1
33	1
34	1
35	1
36	1
37	1
38	1
39	1
40	1
41	1
42	1
43	1
44	1
45	1
46	1
47	1
48	1
49	1
50	1
51	1
52	1
53	1
54	1
55	1
56	1
57	1
58	1
59	1
60	1
61	1
62	1
63	1
64	1
65	1
66	1
67	1
68	1
69	1
70	1
71	1
72	1
73	1
74	1
75	1
76	1
77	1
78	1
79	1
80	1
81	1
82	1
83	1
84	1
85	1
86	1
87	1
88	1
89	1
90	1
91	1
92	1
93	1
94	1
95	1
96	1
97	1
98	1
99	1
100	1
101	1
102	1
103	1
104	1
105	1
106	1
107	1
108	1
109	1
110	1
111	1
112	1
113	1
114	1
115	1
116	1
117	1
118	1
119	1
120	1
121	1
122	1
123	1
124	1
125	1
126	1
127	1
128	1
129	1
130	1
131	1
132	1
133	1
134	1
135	1
136	1
137	1
138	1
139	1
140	1
141	1
142	1
143	1
144	1
145	1
146	1
147	1
148	1
149	1
150	1
151	1
152	1
153	1
154	1
155	1
156	1
157	1
158	1
159	1
160	1
161	1
162	1
163	1
164	1
165	1
166	1
167	1
168	1
169	1
170	1
171	1
172	1
173	1
174	1
175	1
176	1
177	1
178	1
179	1
180	1
181	1
182	1
183	1
184	1
185	1
186	1
187	1
188	1
189	1
190	1
191	1
192	1
193	1
194	1
195	1
196	1
197	1
198	1
199	1
200	1
201	1
202	1
203	1
204	1
205	1
206	1
207	1
208	1
209	1
210	1
211	1
212	1
213	1
214	1
215	1
216	1
217	1
218	1
219	1
DEPOT_SECTION
1
-1
EOF
